1 -534 -539 0
-534 -536 -539 0
-21 534 -539 0
20 -535 534 -538 -539 0
1 170 -15 21 0
-536 -538 -539 0
534 -537 536 -539 0
-537 536 -539 0
d 534 -537 536 -539 0
-534 -538 -539 0
-538 -539 0
d -536 -538 -539 0
534 -539 0
d 20 -535 534 -538 -539 0
d -21 534 -539 0
-539 0
20 -21 0
-21 -534 0
d -15 -21 -534 0
-534 0
21 0
20 0
-1 0
-514 0
-515 0
520 0
0
